graph_generation/data/cp/rcsp/hexagonal_lattice_N_11_weights-random_windows-loose.dzn
N = 286;
M = 708;
Edge_Start = [1, 1, 2, 3, 3, 5, 5, 6, 7, 7, 8, 9, 9, 10, 11, 12, 14, 15, 15, 16, 17, 18, 19, 19, 20, 21, 21, 22, 23, 24, 25, 25, 26, 27, 28, 29, 30, 31, 32, 33, 34, 35, 35, 36, 37, 37, 38, 39, 39, 40, 41, 41, 42, 43, 44, 45, 46, 47, 48, 49, 50, 50, 51, 52, 53, 54, 54, 55, 56, 56, 57, 58, 58, 59, 60, 60, 62, 62, 64, 64, 65, 66, 67, 68, 68, 69, 70, 70, 72, 73, 73, 74, 75, 76, 77, 77, 78, 79, 79, 80, 81, 81, 82, 83, 83, 84, 85, 85, 86, 87, 88, 89, 89, 90, 91, 91, 93, 93, 94, 95, 96, 96, 97, 98, 98, 99, 100, 100, 101, 102, 102, 103, 104, 104, 105, 106, 106, 107, 108, 108, 109, 110, 110, 111, 112, 113, 114, 114, 115, 116, 117, 118, 120, 121, 121, 122, 123, 123, 125, 125, 126, 127, 127, 128, 129, 129, 130, 131, 131, 133, 133, 134, 135, 135, 136, 137, 137, 138, 139, 140, 141, 141, 142, 143, 144, 146, 146, 147, 148, 148, 149, 150, 150, 151, 152, 152, 153, 154, 154, 155, 156, 156, 157, 158, 158, 159, 160, 160, 161, 162, 162, 163, 164, 165, 166, 166, 168, 169, 169, 170, 171, 171, 172, 173, 173, 174, 175, 176, 177, 177, 178, 179, 179, 180, 181, 181, 182, 183, 183, 184, 185, 185, 187, 188, 189, 190, 191, 192, 193, 195, 196, 196, 197, 198, 198, 199, 200, 200, 201, 202, 202, 203, 204, 205, 206, 206, 207, 208, 208, 209, 210, 210, 211, 213, 214, 214, 216, 217, 217, 218, 219, 220, 221, 221, 222, 223, 224, 225, 225, 226, 227, 228, 229, 229, 231, 231, 232, 233, 233, 234, 235, 236, 237, 237, 238, 239, 240, 240, 241, 242, 243, 244, 245, 246, 246, 248, 248, 249, 250, 251, 252, 252, 253, 254, 255, 256, 256, 257, 258, 259, 260, 260, 261, 262, 262, 264, 265, 266, 267, 268, 269, 270, 271, 273, 275, 277, 278, 279, 280, 281, 282, 283, 284, 285, 2, 24, 3, 4, 26, 6, 28, 7, 8, 30, 9, 10, 32, 11, 12, 13, 15, 16, 38, 17, 18, 19, 20, 42, 21, 22, 44, 23, 46, 25, 26, 49, 27, 28, 29, 30, 31, 55, 33, 34, 35, 36, 59, 37, 38, 61, 39, 40, 63, 41, 42, 65, 43, 67, 45, 69, 47, 71, 72, 50, 51, 74, 52, 53, 54, 55, 78, 56, 57, 80, 58, 59, 82, 60, 61, 84, 63, 86, 65, 88, 66, 90, 68, 69, 92, 70, 71, 94, 73, 74, 97, 75, 76, 77, 78, 101, 79, 80, 103, 81, 82, 105, 83, 84, 107, 85, 86, 109, 87, 111, 89, 90, 113, 91, 92, 115, 94, 117, 95, 119, 97, 120, 98, 99, 122, 100, 101, 124, 102, 103, 126, 104, 105, 128, 106, 107, 130, 108, 109, 132, 110, 111, 134, 112, 113, 114, 115, 138, 116, 140, 118, 119, 121, 122, 145, 123, 124, 147, 126, 149, 127, 128, 151, 129, 130, 153, 131, 132, 155, 134, 157, 135, 136, 159, 137, 138, 161, 139, 163, 141, 142, 165, 143, 167, 168, 147, 170, 148, 149, 172, 150, 151, 174, 152, 153, 176, 154, 155, 178, 156, 157, 180, 158, 159, 182, 160, 161, 184, 162, 163, 186, 164, 188, 166, 167, 190, 169, 170, 193, 171, 172, 195, 173, 174, 197, 175, 176, 177, 178, 201, 179, 180, 203, 181, 182, 205, 183, 184, 207, 185, 186, 209, 211, 189, 190, 191, 215, 193, 194, 196, 197, 220, 198, 199, 222, 200, 201, 224, 202, 203, 226, 204, 205, 206, 207, 230, 208, 209, 232, 210, 211, 234, 212, 214, 215, 238, 217, 218, 241, 219, 243, 221, 222, 245, 223, 247, 225, 226, 249, 227, 251, 229, 230, 253, 232, 255, 233, 234, 257, 235, 236, 237, 238, 261, 239, 263, 241, 264, 242, 243, 244, 245, 246, 247, 270, 249, 272, 250, 274, 252, 253, 276, 254, 255, 256, 257, 280, 258, 259, 260, 261, 284, 262, 263, 286, 265, 266, 267, 268, 269, 270, 271, 272, 274, 276, 278, 279, 280, 281, 282, 283, 284, 285, 286];
Edge_End = [2, 24, 3, 4, 26, 6, 28, 7, 8, 30, 9, 10, 32, 11, 12, 13, 15, 16, 38, 17, 18, 19, 20, 42, 21, 22, 44, 23, 46, 25, 26, 49, 27, 28, 29, 30, 31, 55, 33, 34, 35, 36, 59, 37, 38, 61, 39, 40, 63, 41, 42, 65, 43, 67, 45, 69, 47, 71, 72, 50, 51, 74, 52, 53, 54, 55, 78, 56, 57, 80, 58, 59, 82, 60, 61, 84, 63, 86, 65, 88, 66, 90, 68, 69, 92, 70, 71, 94, 73, 74, 97, 75, 76, 77, 78, 101, 79, 80, 103, 81, 82, 105, 83, 84, 107, 85, 86, 109, 87, 111, 89, 90, 113, 91, 92, 115, 94, 117, 95, 119, 97, 120, 98, 99, 122, 100, 101, 124, 102, 103, 126, 104, 105, 128, 106, 107, 130, 108, 109, 132, 110, 111, 134, 112, 113, 114, 115, 138, 116, 140, 118, 119, 121, 122, 145, 123, 124, 147, 126, 149, 127, 128, 151, 129, 130, 153, 131, 132, 155, 134, 157, 135, 136, 159, 137, 138, 161, 139, 163, 141, 142, 165, 143, 167, 168, 147, 170, 148, 149, 172, 150, 151, 174, 152, 153, 176, 154, 155, 178, 156, 157, 180, 158, 159, 182, 160, 161, 184, 162, 163, 186, 164, 188, 166, 167, 190, 169, 170, 193, 171, 172, 195, 173, 174, 197, 175, 176, 177, 178, 201, 179, 180, 203, 181, 182, 205, 183, 184, 207, 185, 186, 209, 211, 189, 190, 191, 215, 193, 194, 196, 197, 220, 198, 199, 222, 200, 201, 224, 202, 203, 226, 204, 205, 206, 207, 230, 208, 209, 232, 210, 211, 234, 212, 214, 215, 238, 217, 218, 241, 219, 243, 221, 222, 245, 223, 247, 225, 226, 249, 227, 251, 229, 230, 253, 232, 255, 233, 234, 257, 235, 236, 237, 238, 261, 239, 263, 241, 264, 242, 243, 244, 245, 246, 247, 270, 249, 272, 250, 274, 252, 253, 276, 254, 255, 256, 257, 280, 258, 259, 260, 261, 284, 262, 263, 286, 265, 266, 267, 268, 269, 270, 271, 272, 274, 276, 278, 279, 280, 281, 282, 283, 284, 285, 286, 1, 1, 2, 3, 3, 5, 5, 6, 7, 7, 8, 9, 9, 10, 11, 12, 14, 15, 15, 16, 17, 18, 19, 19, 20, 21, 21, 22, 23, 24, 25, 25, 26, 27, 28, 29, 30, 31, 32, 33, 34, 35, 35, 36, 37, 37, 38, 39, 39, 40, 41, 41, 42, 43, 44, 45, 46, 47, 48, 49, 50, 50, 51, 52, 53, 54, 54, 55, 56, 56, 57, 58, 58, 59, 60, 60, 62, 62, 64, 64, 65, 66, 67, 68, 68, 69, 70, 70, 72, 73, 73, 74, 75, 76, 77, 77, 78, 79, 79, 80, 81, 81, 82, 83, 83, 84, 85, 85, 86, 87, 88, 89, 89, 90, 91, 91, 93, 93, 94, 95, 96, 96, 97, 98, 98, 99, 100, 100, 101, 102, 102, 103, 104, 104, 105, 106, 106, 107, 108, 108, 109, 110, 110, 111, 112, 113, 114, 114, 115, 116, 117, 118, 120, 121, 121, 122, 123, 123, 125, 125, 126, 127, 127, 128, 129, 129, 130, 131, 131, 133, 133, 134, 135, 135, 136, 137, 137, 138, 139, 140, 141, 141, 142, 143, 144, 146, 146, 147, 148, 148, 149, 150, 150, 151, 152, 152, 153, 154, 154, 155, 156, 156, 157, 158, 158, 159, 160, 160, 161, 162, 162, 163, 164, 165, 166, 166, 168, 169, 169, 170, 171, 171, 172, 173, 173, 174, 175, 176, 177, 177, 178, 179, 179, 180, 181, 181, 182, 183, 183, 184, 185, 185, 187, 188, 189, 190, 191, 192, 193, 195, 196, 196, 197, 198, 198, 199, 200, 200, 201, 202, 202, 203, 204, 205, 206, 206, 207, 208, 208, 209, 210, 210, 211, 213, 214, 214, 216, 217, 217, 218, 219, 220, 221, 221, 222, 223, 224, 225, 225, 226, 227, 228, 229, 229, 231, 231, 232, 233, 233, 234, 235, 236, 237, 237, 238, 239, 240, 240, 241, 242, 243, 244, 245, 246, 246, 248, 248, 249, 250, 251, 252, 252, 253, 254, 255, 256, 256, 257, 258, 259, 260, 260, 261, 262, 262, 264, 265, 266, 267, 268, 269, 270, 271, 273, 275, 277, 278, 279, 280, 281, 282, 283, 284, 285];
L = [15, 12, 17, 14, 5, 8, 19, 5, 4, 18, 13, 9, 11, 16, 14, 11, 2, 3, 12, 13, 18, 3, 12, 18, 15, 14, 18, 1, 11, 8, 1, 13, 17, 18, 9, 18, 11, 11, 11, 3, 14, 10, 18, 6, 7, 11, 8, 11, 18, 19, 18, 10, 3, 12, 9, 8, 11, 19, 12, 9, 17, 5, 10, 7, 18, 11, 11, 3, 15, 18, 10, 17, 12, 10, 13, 10, 13, 1, 17, 7, 3, 14, 10, 17, 15, 9, 18, 17, 9, 11, 17, 13, 1, 13, 18, 6, 12, 18, 10, 1, 5, 6, 12, 5, 14, 17, 5, 5, 15, 18, 11, 9, 8, 6, 13, 11, 3, 5, 8, 13, 5, 6, 12, 6, 8, 2, 16, 9, 3, 6, 7, 15, 9, 18, 10, 18, 14, 14, 2, 5, 18, 3, 11, 10, 15, 4, 2, 8, 14, 18, 1, 5, 7, 5, 4, 7, 3, 11, 8, 9, 6, 7, 19, 11, 2, 9, 6, 3, 3, 2, 15, 7, 14, 4, 8, 18, 11, 8, 4, 6, 2, 8, 18, 7, 5, 8, 8, 4, 6, 12, 19, 13, 16, 13, 18, 15, 4, 1, 4, 13, 1, 2, 9, 5, 9, 7, 2, 14, 12, 14, 8, 10, 14, 15, 7, 15, 13, 4, 1, 4, 8, 19, 18, 9, 7, 17, 2, 4, 16, 9, 15, 7, 13, 17, 4, 5, 18, 12, 8, 18, 17, 1, 19, 9, 2, 8, 15, 1, 5, 9, 6, 13, 9, 5, 10, 5, 10, 12, 9, 9, 3, 9, 4, 7, 16, 2, 17, 11, 10, 11, 10, 17, 4, 18, 8, 4, 13, 11, 1, 6, 2, 18, 3, 10, 6, 7, 9, 4, 6, 8, 5, 7, 19, 16, 5, 7, 19, 7, 4, 6, 1, 19, 15, 1, 18, 17, 4, 15, 9, 10, 10, 1, 10, 10, 18, 4, 14, 8, 15, 13, 7, 4, 17, 14, 11, 12, 14, 10, 6, 11, 1, 2, 1, 1, 1, 2, 10, 3, 11, 13, 17, 2, 13, 13, 9, 19, 8, 17, 16, 15, 10, 8, 18, 13, 15, 12, 17, 14, 5, 8, 19, 5, 4, 18, 13, 9, 11, 16, 14, 11, 2, 3, 12, 13, 18, 3, 12, 18, 15, 14, 18, 1, 11, 8, 1, 13, 17, 18, 9, 18, 11, 11, 11, 3, 14, 10, 18, 6, 7, 11, 8, 11, 18, 19, 18, 10, 3, 12, 9, 8, 11, 19, 12, 9, 17, 5, 10, 7, 18, 11, 11, 3, 15, 18, 10, 17, 12, 10, 13, 10, 13, 1, 17, 7, 3, 14, 10, 17, 15, 9, 18, 17, 9, 11, 17, 13, 1, 13, 18, 6, 12, 18, 10, 1, 5, 6, 12, 5, 14, 17, 5, 5, 15, 18, 11, 9, 8, 6, 13, 11, 3, 5, 8, 13, 5, 6, 12, 6, 8, 2, 16, 9, 3, 6, 7, 15, 9, 18, 10, 18, 14, 14, 2, 5, 18, 3, 11, 10, 15, 4, 2, 8, 14, 18, 1, 5, 7, 5, 4, 7, 3, 11, 8, 9, 6, 7, 19, 11, 2, 9, 6, 3, 3, 2, 15, 7, 14, 4, 8, 18, 11, 8, 4, 6, 2, 8, 18, 7, 5, 8, 8, 4, 6, 12, 19, 13, 16, 13, 18, 15, 4, 1, 4, 13, 1, 2, 9, 5, 9, 7, 2, 14, 12, 14, 8, 10, 14, 15, 7, 15, 13, 4, 1, 4, 8, 19, 18, 9, 7, 17, 2, 4, 16, 9, 15, 7, 13, 17, 4, 5, 18, 12, 8, 18, 17, 1, 19, 9, 2, 8, 15, 1, 5, 9, 6, 13, 9, 5, 10, 5, 10, 12, 9, 9, 3, 9, 4, 7, 16, 2, 17, 11, 10, 11, 10, 17, 4, 18, 8, 4, 13, 11, 1, 6, 2, 18, 3, 10, 6, 7, 9, 4, 6, 8, 5, 7, 19, 16, 5, 7, 19, 7, 4, 6, 1, 19, 15, 1, 18, 17, 4, 15, 9, 10, 10, 1, 10, 10, 18, 4, 14, 8, 15, 13, 7, 4, 17, 14, 11, 12, 14, 10, 6, 11, 1, 2, 1, 1, 1, 2, 10, 3, 11, 13, 17, 2, 13, 13, 9, 19, 8, 17, 16, 15, 10, 8, 18, 13];
T = [15, 3, 15, 12, 1, 2, 16, 1, 10, 18, 10, 15, 13, 14, 13, 9, 7, 8, 11, 18, 20, 4, 6, 20, 28, 8, 17, 6, 9, 2, 2, 17, 13, 14, 4, 20, 17, 3, 5, 1, 15, 14, 17, 6, 20, 9, 1, 15, 12, 14, 18, 6, 2, 11, 12, 8, 15, 28, 5, 15, 19, 7, 5, 1, 19, 11, 8, 1, 16, 21, 7, 29, 10, 9, 21, 11, 8, 1, 26, 4, 5, 12, 12, 18, 21, 8, 13, 7, 10, 5, 21, 13, 3, 12, 18, 12, 14, 13, 9, 1, 14, 8, 21, 9, 14, 12, 3, 5, 7, 20, 11, 2, 9, 3, 16, 19, 5, 2, 6, 11, 7, 4, 14, 7, 11, 4, 19, 4, 1, 7, 2, 15, 2, 17, 8, 25, 9, 14, 6, 10, 14, 4, 12, 10, 16, 6, 1, 6, 12, 19, 1, 10, 10, 5, 11, 8, 1, 8, 4, 17, 7, 1, 17, 19, 4, 8, 2, 4, 1, 7, 12, 6, 12, 1, 4, 21, 15, 1, 6, 4, 3, 10, 26, 5, 2, 8, 10, 1, 12, 9, 15, 19, 18, 10, 25, 10, 6, 7, 1, 17, 1, 5, 5, 3, 3, 1, 5, 22, 15, 15, 15, 6, 5, 15, 8, 28, 21, 3, 3, 1, 12, 19, 13, 6, 8, 19, 1, 3, 17, 18, 12, 8, 13, 14, 1, 5, 19, 14, 1, 9, 21, 1, 12, 20, 1, 14, 18, 2, 3, 16, 9, 10, 14, 1, 5, 7, 10, 10, 9, 7, 5, 11, 2, 7, 20, 1, 21, 10, 8, 9, 16, 19, 6, 25, 7, 7, 8, 14, 5, 6, 1, 20, 13, 3, 1, 2, 1, 6, 19, 9, 7, 5, 18, 17, 8, 7, 21, 9, 1, 2, 2, 23, 15, 1, 29, 19, 2, 13, 8, 3, 10, 1, 8, 17, 22, 1, 22, 10, 11, 9, 10, 6, 11, 10, 18, 16, 12, 1, 1, 9, 1, 1, 8, 4, 4, 2, 5, 5, 16, 16, 23, 1, 17, 16, 17, 23, 15, 14, 14, 12, 3, 7, 16, 22, 15, 3, 15, 12, 1, 2, 16, 1, 10, 18, 10, 15, 13, 14, 13, 9, 7, 8, 11, 18, 20, 4, 6, 20, 28, 8, 17, 6, 9, 2, 2, 17, 13, 14, 4, 20, 17, 3, 5, 1, 15, 14, 17, 6, 20, 9, 1, 15, 12, 14, 18, 6, 2, 11, 12, 8, 15, 28, 5, 15, 19, 7, 5, 1, 19, 11, 8, 1, 16, 21, 7, 29, 10, 9, 21, 11, 8, 1, 26, 4, 5, 12, 12, 18, 21, 8, 13, 7, 10, 5, 21, 13, 3, 12, 18, 12, 14, 13, 9, 1, 14, 8, 21, 9, 14, 12, 3, 5, 7, 20, 11, 2, 9, 3, 16, 19, 5, 2, 6, 11, 7, 4, 14, 7, 11, 4, 19, 4, 1, 7, 2, 15, 2, 17, 8, 25, 9, 14, 6, 10, 14, 4, 12, 10, 16, 6, 1, 6, 12, 19, 1, 10, 10, 5, 11, 8, 1, 8, 4, 17, 7, 1, 17, 19, 4, 8, 2, 4, 1, 7, 12, 6, 12, 1, 4, 21, 15, 1, 6, 4, 3, 10, 26, 5, 2, 8, 10, 1, 12, 9, 15, 19, 18, 10, 25, 10, 6, 7, 1, 17, 1, 5, 5, 3, 3, 1, 5, 22, 15, 15, 15, 6, 5, 15, 8, 28, 21, 3, 3, 1, 12, 19, 13, 6, 8, 19, 1, 3, 17, 18, 12, 8, 13, 14, 1, 5, 19, 14, 1, 9, 21, 1, 12, 20, 1, 14, 18, 2, 3, 16, 9, 10, 14, 1, 5, 7, 10, 10, 9, 7, 5, 11, 2, 7, 20, 1, 21, 10, 8, 9, 16, 19, 6, 25, 7, 7, 8, 14, 5, 6, 1, 20, 13, 3, 1, 2, 1, 6, 19, 9, 7, 5, 18, 17, 8, 7, 21, 9, 1, 2, 2, 23, 15, 1, 29, 19, 2, 13, 8, 3, 10, 1, 8, 17, 22, 1, 22, 10, 11, 9, 10, 6, 11, 10, 18, 16, 12, 1, 1, 9, 1, 1, 8, 4, 4, 2, 5, 5, 16, 16, 23, 1, 17, 16, 17, 23, 15, 14, 14, 12, 3, 7, 16, 22];
Lower_Bound = [0, 16, 8, 20, 50, 52, 53, 63, 74, 88, 103, 116, 124, 167, 159, 166, 185, 204, 209, 215, 245, 250, 256, 4, 8, 7, 20, 34, 38, 58, 75, 86, 91, 94, 107, 121, 127, 147, 149, 163, 180, 195, 198, 259, 246, 265, 280, 65, 23, 37, 56, 61, 62, 81, 79, 79, 95, 102, 124, 133, 136, 149, 157, 209, 183, 188, 208, 224, 238, 246, 260, 60, 51, 44, 57, 60, 72, 89, 101, 100, 101, 114, 133, 143, 147, 148, 156, 204, 193, 195, 198, 214, 258, 253, 259, 77, 72, 84, 91, 95, 84, 85, 92, 108, 109, 117, 142, 134, 140, 154, 158, 168, 184, 190, 192, 205, 260, 261, 273, 81, 92, 97, 100, 100, 91, 87, 94, 95, 115, 119, 120, 124, 151, 154, 148, 160, 164, 185, 188, 222, 226, 229, 257, 152, 102, 116, 109, 111, 109, 123, 111, 121, 123, 128, 121, 139, 139, 145, 147, 148, 153, 168, 183, 189, 236, 245, 251, 150, 129, 131, 127, 118, 133, 137, 132, 131, 134, 129, 141, 143, 149, 148, 167, 170, 179, 183, 218, 194, 216, 215, 229, 134, 132, 135, 146, 148, 139, 153, 154, 162, 153, 162, 154, 156, 153, 162, 168, 190, 180, 192, 205, 211, 283, 254, 247, 209, 202, 192, 187, 158, 171, 158, 159, 171, 172, 166, 177, 184, 180, 161, 204, 196, 217, 208, 213, 212, 231, 246, 261, 198, 197, 190, 187, 176, 174, 180, 162, 193, 191, 201, 183, 191, 197, 208, 212, 229, 218, 219, 220, 229, 230, 238, 242, 211, 213, 219, 224, 239, 223, 200, 202, 214, 229, 212, 214, 197, 293, 270, 255, 241, 252, 240, 237, 230, 246, 244];
Upper_Bound = [1, 17, 10, 23, 51, 53, 57, 68, 100, 99, 108, 122, 129, 168, 179, 168, 192, 210, 216, 219, 255, 255, 257, 19, 10, 12, 25, 44, 41, 59, 77, 89, 95, 100, 112, 126, 136, 151, 165, 164, 183, 197, 208, 261, 248, 274, 285, 72, 25, 43, 59, 62, 63, 84, 86, 86, 104, 104, 148, 135, 138, 150, 164, 216, 190, 200, 209, 226, 245, 249, 262, 67, 55, 46, 59, 63, 77, 91, 104, 101, 116, 120, 135, 144, 149, 163, 167, 208, 198, 198, 205, 218, 260, 257, 262, 80, 73, 90, 93, 103, 88, 97, 95, 110, 124, 122, 160, 136, 147, 159, 160, 170, 186, 193, 207, 225, 270, 268, 276, 93, 133, 98, 102, 107, 98, 88, 98, 98, 117, 128, 122, 139, 152, 155, 153, 171, 167, 188, 195, 225, 234, 240, 261, 158, 104, 120, 113, 112, 117, 124, 112, 131, 124, 129, 124, 141, 142, 149, 148, 153, 159, 172, 190, 190, 237, 261, 252, 156, 131, 135, 129, 123, 139, 139, 134, 137, 137, 133, 142, 146, 152, 154, 173, 175, 181, 184, 225, 206, 218, 225, 231, 139, 133, 136, 149, 154, 146, 154, 155, 179, 167, 168, 170, 161, 164, 167, 170, 196, 182, 196, 212, 213, 287, 258, 256, 227, 209, 204, 192, 171, 178, 160, 161, 177, 174, 168, 184, 187, 184, 178, 206, 198, 219, 210, 224, 215, 233, 258, 265, 213, 199, 191, 192, 178, 178, 182, 177, 195, 194, 209, 184, 194, 201, 213, 213, 237, 219, 226, 222, 232, 233, 240, 244, 216, 218, 223, 229, 241, 224, 203, 203, 219, 233, 214, 215, 198, 303, 278, 261, 245, 256, 241, 241, 235, 268, 247];
Start = 1;
End = 286;
Time = 247;
