graph_generation/data/sat/rcsp/hexagonal_lattice_N_11_weights-random_windows-loose.txt
N = 286;
M = 708;
Edge_Start = [1, 1, 2, 2, 3, 3, 3, 4, 5, 5, 6, 6, 7, 7, 7, 8, 8, 9, 9, 9, 10, 10, 11, 11, 12, 12, 13, 14, 15, 15, 15, 16, 16, 17, 17, 18, 18, 19, 19, 19, 20, 20, 21, 21, 21, 22, 22, 23, 23, 24, 24, 25, 25, 25, 26, 26, 26, 27, 27, 28, 28, 28, 29, 29, 30, 30, 30, 31, 31, 32, 32, 33, 33, 34, 34, 35, 35, 35, 36, 36, 37, 37, 37, 38, 38, 38, 39, 39, 39, 40, 40, 41, 41, 41, 42, 42, 42, 43, 43, 44, 44, 45, 45, 46, 46, 47, 47, 48, 49, 49, 50, 50, 50, 51, 51, 52, 52, 53, 53, 54, 54, 54, 55, 55, 55, 56, 56, 56, 57, 57, 58, 58, 58, 59, 59, 59, 60, 60, 60, 61, 61, 62, 62, 63, 63, 64, 64, 65, 65, 65, 66, 66, 67, 67, 68, 68, 68, 69, 69, 69, 70, 70, 70, 71, 71, 72, 72, 73, 73, 73, 74, 74, 74, 75, 75, 76, 76, 77, 77, 77, 78, 78, 78, 79, 79, 79, 80, 80, 80, 81, 81, 81, 82, 82, 82, 83, 83, 83, 84, 84, 84, 85, 85, 85, 86, 86, 86, 87, 87, 88, 88, 89, 89, 89, 90, 90, 90, 91, 91, 91, 92, 92, 93, 93, 94, 94, 94, 95, 95, 96, 96, 97, 97, 97, 98, 98, 98, 99, 99, 100, 100, 100, 101, 101, 101, 102, 102, 102, 103, 103, 103, 104, 104, 104, 105, 105, 105, 106, 106, 106, 107, 107, 107, 108, 108, 108, 109, 109, 109, 110, 110, 110, 111, 111, 111, 112, 112, 113, 113, 113, 114, 114, 114, 115, 115, 115, 116, 116, 117, 117, 118, 118, 119, 119, 120, 120, 121, 121, 121, 122, 122, 122, 123, 123, 123, 124, 124, 125, 125, 126, 126, 126, 127, 127, 127, 128, 128, 128, 129, 129, 129, 130, 130, 130, 131, 131, 131, 132, 132, 133, 133, 134, 134, 134, 135, 135, 135, 136, 136, 137, 137, 137, 138, 138, 138, 139, 139, 140, 140, 141, 141, 141, 142, 142, 143, 143, 144, 145, 146, 146, 147, 147, 147, 148, 148, 148, 149, 149, 149, 150, 150, 150, 151, 151, 151, 152, 152, 152, 153, 153, 153, 154, 154, 154, 155, 155, 155, 156, 156, 156, 157, 157, 157, 158, 158, 158, 159, 159, 159, 160, 160, 160, 161, 161, 161, 162, 162, 162, 163, 163, 163, 164, 164, 165, 165, 166, 166, 166, 167, 167, 168, 168, 169, 169, 169, 170, 170, 170, 171, 171, 171, 172, 172, 172, 173, 173, 173, 174, 174, 174, 175, 175, 176, 176, 176, 177, 177, 177, 178, 178, 178, 179, 179, 179, 180, 180, 180, 181, 181, 181, 182, 182, 182, 183, 183, 183, 184, 184, 184, 185, 185, 185, 186, 186, 187, 188, 188, 189, 189, 190, 190, 190, 191, 191, 192, 193, 193, 193, 194, 195, 195, 196, 196, 196, 197, 197, 197, 198, 198, 198, 199, 199, 200, 200, 200, 201, 201, 201, 202, 202, 202, 203, 203, 203, 204, 204, 205, 205, 205, 206, 206, 206, 207, 207, 207, 208, 208, 208, 209, 209, 209, 210, 210, 210, 211, 211, 211, 212, 213, 214, 214, 214, 215, 215, 216, 217, 217, 217, 218, 218, 219, 219, 220, 220, 221, 221, 221, 222, 222, 222, 223, 223, 224, 224, 225, 225, 225, 226, 226, 226, 227, 227, 228, 229, 229, 229, 230, 230, 231, 231, 232, 232, 232, 233, 233, 233, 234, 234, 234, 235, 235, 236, 236, 237, 237, 237, 238, 238, 238, 239, 239, 240, 240, 241, 241, 241, 242, 242, 243, 243, 243, 244, 244, 245, 245, 245, 246, 246, 246, 247, 247, 248, 248, 249, 249, 249, 250, 250, 251, 251, 252, 252, 252, 253, 253, 253, 254, 254, 255, 255, 255, 256, 256, 256, 257, 257, 257, 258, 258, 259, 259, 260, 260, 260, 261, 261, 261, 262, 262, 262, 263, 263, 264, 264, 265, 265, 266, 266, 267, 267, 268, 268, 269, 269, 270, 270, 270, 271, 271, 272, 272, 273, 274, 274, 275, 276, 276, 277, 278, 278, 279, 279, 280, 280, 280, 281, 281, 282, 282, 283, 283, 284, 284, 284, 285, 285, 286, 286];
Edge_End = [2, 24, 1, 3, 2, 4, 26, 3, 6, 28, 5, 7, 6, 8, 30, 7, 9, 8, 10, 32, 9, 11, 10, 12, 11, 13, 12, 15, 14, 16, 38, 15, 17, 16, 18, 17, 19, 18, 20, 42, 19, 21, 20, 22, 44, 21, 23, 22, 46, 1, 25, 24, 26, 49, 3, 25, 27, 26, 28, 5, 27, 29, 28, 30, 7, 29, 31, 30, 55, 9, 33, 32, 34, 33, 35, 34, 36, 59, 35, 37, 36, 38, 61, 15, 37, 39, 38, 40, 63, 39, 41, 40, 42, 65, 19, 41, 43, 42, 67, 21, 45, 44, 69, 23, 47, 46, 71, 72, 25, 50, 49, 51, 74, 50, 52, 51, 53, 52, 54, 53, 55, 78, 31, 54, 56, 55, 57, 80, 56, 58, 57, 59, 82, 35, 58, 60, 59, 61, 84, 37, 60, 63, 86, 39, 62, 65, 88, 41, 64, 66, 65, 90, 43, 68, 67, 69, 92, 45, 68, 70, 69, 71, 94, 47, 70, 48, 73, 72, 74, 97, 50, 73, 75, 74, 76, 75, 77, 76, 78, 101, 54, 77, 79, 78, 80, 103, 56, 79, 81, 80, 82, 105, 58, 81, 83, 82, 84, 107, 60, 83, 85, 84, 86, 109, 62, 85, 87, 86, 111, 64, 89, 88, 90, 113, 66, 89, 91, 90, 92, 115, 68, 91, 94, 117, 70, 93, 95, 94, 119, 97, 120, 73, 96, 98, 97, 99, 122, 98, 100, 99, 101, 124, 77, 100, 102, 101, 103, 126, 79, 102, 104, 103, 105, 128, 81, 104, 106, 105, 107, 130, 83, 106, 108, 107, 109, 132, 85, 108, 110, 109, 111, 134, 87, 110, 112, 111, 113, 89, 112, 114, 113, 115, 138, 91, 114, 116, 115, 140, 93, 118, 117, 119, 95, 118, 96, 121, 120, 122, 145, 98, 121, 123, 122, 124, 147, 100, 123, 126, 149, 102, 125, 127, 126, 128, 151, 104, 127, 129, 128, 130, 153, 106, 129, 131, 130, 132, 155, 108, 131, 134, 157, 110, 133, 135, 134, 136, 159, 135, 137, 136, 138, 161, 114, 137, 139, 138, 163, 116, 141, 140, 142, 165, 141, 143, 142, 167, 168, 121, 147, 170, 123, 146, 148, 147, 149, 172, 125, 148, 150, 149, 151, 174, 127, 150, 152, 151, 153, 176, 129, 152, 154, 153, 155, 178, 131, 154, 156, 155, 157, 180, 133, 156, 158, 157, 159, 182, 135, 158, 160, 159, 161, 184, 137, 160, 162, 161, 163, 186, 139, 162, 164, 163, 188, 141, 166, 165, 167, 190, 143, 166, 144, 169, 168, 170, 193, 146, 169, 171, 170, 172, 195, 148, 171, 173, 172, 174, 197, 150, 173, 175, 174, 176, 152, 175, 177, 176, 178, 201, 154, 177, 179, 178, 180, 203, 156, 179, 181, 180, 182, 205, 158, 181, 183, 182, 184, 207, 160, 183, 185, 184, 186, 209, 162, 185, 211, 164, 189, 188, 190, 166, 189, 191, 190, 215, 193, 169, 192, 194, 193, 171, 196, 195, 197, 220, 173, 196, 198, 197, 199, 222, 198, 200, 199, 201, 224, 177, 200, 202, 201, 203, 226, 179, 202, 204, 203, 205, 181, 204, 206, 205, 207, 230, 183, 206, 208, 207, 209, 232, 185, 208, 210, 209, 211, 234, 187, 210, 212, 211, 214, 213, 215, 238, 191, 214, 217, 216, 218, 241, 217, 219, 218, 243, 196, 221, 220, 222, 245, 198, 221, 223, 222, 247, 200, 225, 224, 226, 249, 202, 225, 227, 226, 251, 229, 228, 230, 253, 206, 229, 232, 255, 208, 231, 233, 232, 234, 257, 210, 233, 235, 234, 236, 235, 237, 236, 238, 261, 214, 237, 239, 238, 263, 241, 264, 217, 240, 242, 241, 243, 219, 242, 244, 243, 245, 221, 244, 246, 245, 247, 270, 223, 246, 249, 272, 225, 248, 250, 249, 274, 227, 252, 251, 253, 276, 229, 252, 254, 253, 255, 231, 254, 256, 255, 257, 280, 233, 256, 258, 257, 259, 258, 260, 259, 261, 284, 237, 260, 262, 261, 263, 286, 239, 262, 240, 265, 264, 266, 265, 267, 266, 268, 267, 269, 268, 270, 246, 269, 271, 270, 272, 248, 271, 274, 250, 273, 276, 252, 275, 278, 277, 279, 278, 280, 256, 279, 281, 280, 282, 281, 283, 282, 284, 260, 283, 285, 284, 286, 262, 285];
L = [15, 12, 15, 17, 17, 14, 5, 14, 8, 19, 8, 5, 5, 4, 18, 4, 13, 13, 9, 11, 9, 16, 16, 14, 14, 11, 11, 2, 2, 3, 12, 3, 13, 13, 18, 18, 3, 3, 12, 18, 12, 15, 15, 14, 18, 14, 1, 1, 11, 12, 8, 8, 1, 13, 5, 1, 17, 17, 18, 19, 18, 9, 9, 18, 18, 18, 11, 11, 11, 11, 11, 11, 3, 3, 14, 14, 10, 18, 10, 6, 6, 7, 11, 12, 7, 8, 8, 11, 18, 11, 19, 19, 18, 10, 18, 18, 3, 3, 12, 18, 9, 9, 8, 11, 11, 11, 19, 12, 13, 9, 9, 17, 5, 17, 10, 10, 7, 7, 18, 18, 11, 11, 11, 11, 3, 3, 15, 18, 15, 10, 10, 17, 12, 18, 17, 10, 10, 13, 10, 11, 13, 13, 1, 18, 13, 17, 7, 10, 17, 3, 3, 14, 12, 10, 10, 17, 15, 8, 17, 9, 9, 18, 17, 19, 18, 12, 9, 9, 11, 17, 5, 11, 13, 13, 1, 1, 13, 13, 18, 6, 11, 18, 12, 12, 18, 10, 18, 18, 1, 1, 5, 6, 12, 5, 12, 12, 5, 14, 10, 5, 17, 17, 5, 5, 1, 5, 15, 15, 18, 7, 11, 11, 9, 8, 14, 9, 6, 6, 13, 11, 15, 13, 3, 5, 17, 3, 8, 8, 13, 5, 6, 17, 5, 12, 12, 6, 8, 6, 2, 2, 16, 9, 6, 16, 3, 3, 6, 7, 10, 6, 15, 15, 9, 18, 6, 9, 10, 10, 18, 14, 14, 18, 14, 14, 2, 5, 5, 2, 18, 18, 3, 11, 18, 3, 10, 10, 15, 8, 15, 4, 4, 2, 8, 11, 2, 14, 14, 18, 5, 1, 1, 5, 13, 5, 6, 7, 7, 5, 4, 8, 5, 7, 7, 3, 11, 9, 3, 8, 9, 7, 8, 6, 6, 7, 19, 18, 7, 11, 11, 2, 9, 14, 2, 6, 6, 3, 3, 5, 3, 2, 15, 11, 2, 7, 7, 14, 4, 14, 8, 8, 18, 11, 8, 18, 8, 8, 4, 18, 6, 6, 2, 8, 2, 18, 18, 7, 5, 4, 8, 8, 11, 8, 4, 4, 6, 12, 9, 6, 19, 19, 13, 16, 19, 13, 13, 13, 18, 15, 9, 18, 4, 4, 1, 4, 3, 1, 13, 13, 1, 2, 15, 1, 9, 9, 5, 9, 4, 5, 7, 7, 2, 14, 11, 2, 12, 12, 14, 8, 4, 14, 10, 10, 14, 8, 15, 15, 7, 15, 7, 7, 5, 13, 13, 4, 1, 8, 4, 4, 4, 8, 19, 12, 8, 18, 18, 9, 7, 16, 9, 17, 17, 2, 15, 2, 4, 4, 16, 9, 4, 16, 15, 15, 7, 13, 2, 7, 17, 17, 4, 5, 9, 4, 18, 18, 12, 8, 14, 12, 18, 18, 17, 1, 8, 17, 19, 14, 9, 9, 2, 15, 2, 8, 8, 15, 1, 1, 1, 5, 5, 19, 9, 9, 6, 13, 7, 6, 9, 9, 5, 10, 5, 5, 5, 10, 12, 9, 10, 9, 9, 9, 3, 13, 9, 9, 9, 4, 5, 4, 7, 7, 16, 2, 8, 16, 17, 17, 11, 10, 1, 11, 11, 11, 10, 17, 19, 10, 4, 4, 18, 18, 8, 4, 15, 8, 13, 13, 11, 1, 11, 6, 6, 2, 13, 18, 18, 3, 10, 10, 3, 6, 6, 7, 12, 9, 9, 4, 6, 3, 4, 8, 8, 5, 7, 7, 19, 16, 2, 19, 5, 7, 10, 5, 19, 19, 7, 4, 17, 7, 6, 6, 1, 1, 19, 19, 15, 1, 4, 15, 18, 18, 17, 4, 15, 1, 4, 9, 9, 10, 2, 10, 10, 10, 1, 10, 1, 10, 10, 10, 18, 7, 10, 4, 14, 6, 4, 8, 8, 15, 5, 13, 13, 7, 4, 16, 7, 17, 17, 14, 7, 14, 11, 11, 12, 14, 4, 12, 10, 10, 6, 6, 11, 11, 1, 2, 1, 1, 1, 1, 1, 1, 17, 1, 15, 2, 2, 10, 10, 3, 3, 11, 11, 13, 13, 17, 18, 17, 2, 2, 13, 14, 13, 13, 15, 13, 9, 4, 9, 19, 19, 8, 8, 17, 14, 17, 16, 16, 15, 15, 10, 10, 8, 2, 8, 18, 18, 13, 1, 13];
T = [22, 4, 22, 12, 12, 12, 8, 12, 14, 15, 14, 1, 1, 6, 19, 6, 14, 14, 8, 14, 8, 16, 16, 18, 18, 3, 3, 2, 2, 1, 18, 1, 11, 11, 14, 14, 11, 11, 18, 14, 18, 11, 11, 12, 21, 12, 1, 1, 8, 4, 3, 3, 1, 9, 8, 1, 22, 22, 16, 15, 16, 12, 12, 15, 19, 15, 5, 5, 3, 14, 10, 10, 1, 1, 15, 15, 9, 14, 9, 1, 1, 3, 7, 18, 3, 17, 17, 18, 16, 18, 28, 28, 28, 12, 14, 28, 1, 1, 9, 21, 4, 4, 1, 8, 6, 6, 17, 13, 9, 1, 1, 8, 5, 8, 11, 11, 13, 13, 20, 20, 5, 12, 3, 5, 8, 8, 19, 8, 19, 12, 12, 11, 12, 14, 11, 15, 15, 11, 9, 7, 11, 10, 8, 16, 10, 18, 4, 12, 18, 1, 1, 4, 9, 7, 7, 14, 19, 1, 14, 10, 10, 20, 19, 17, 20, 13, 14, 14, 7, 13, 5, 7, 10, 10, 1, 1, 13, 13, 29, 5, 12, 29, 13, 13, 20, 8, 8, 20, 1, 1, 1, 9, 12, 1, 8, 8, 1, 14, 9, 1, 18, 18, 6, 6, 8, 6, 17, 17, 15, 4, 11, 11, 10, 1, 4, 10, 4, 4, 16, 11, 19, 16, 3, 4, 19, 3, 7, 7, 19, 8, 9, 13, 8, 11, 11, 7, 5, 7, 13, 13, 17, 1, 5, 17, 4, 4, 17, 8, 8, 17, 13, 13, 7, 14, 9, 7, 14, 14, 24, 18, 14, 24, 12, 12, 3, 11, 6, 3, 7, 7, 1, 12, 15, 1, 13, 13, 14, 1, 14, 3, 3, 6, 7, 11, 6, 14, 14, 22, 4, 5, 5, 1, 19, 1, 9, 10, 10, 15, 4, 5, 15, 13, 13, 5, 4, 1, 5, 7, 6, 8, 7, 17, 17, 10, 23, 14, 10, 4, 4, 1, 10, 18, 1, 1, 1, 1, 5, 11, 1, 1, 12, 12, 1, 12, 12, 25, 1, 25, 6, 6, 9, 20, 7, 9, 19, 19, 3, 22, 9, 9, 1, 8, 1, 25, 25, 20, 1, 4, 10, 4, 4, 10, 4, 4, 9, 16, 6, 9, 18, 18, 3, 17, 23, 3, 8, 8, 13, 12, 10, 13, 1, 1, 1, 3, 5, 1, 14, 14, 1, 2, 12, 1, 15, 15, 5, 18, 1, 5, 9, 9, 2, 9, 20, 2, 5, 5, 22, 1, 3, 22, 4, 4, 14, 8, 8, 8, 7, 4, 20, 7, 1, 15, 15, 8, 1, 4, 8, 4, 4, 15, 21, 16, 15, 17, 17, 10, 1, 17, 10, 25, 25, 1, 12, 1, 7, 7, 21, 7, 3, 21, 11, 11, 7, 9, 2, 7, 12, 12, 1, 5, 18, 1, 11, 11, 16, 8, 9, 16, 12, 12, 12, 6, 1, 12, 15, 14, 15, 15, 3, 4, 3, 10, 10, 12, 1, 1, 1, 2, 2, 21, 5, 5, 9, 11, 1, 9, 1, 1, 5, 16, 5, 4, 4, 9, 7, 7, 9, 11, 11, 5, 1, 9, 5, 9, 9, 1, 5, 1, 1, 1, 19, 1, 8, 19, 11, 11, 8, 1, 6, 8, 17, 17, 12, 24, 15, 12, 12, 12, 24, 24, 12, 4, 12, 12, 9, 9, 11, 1, 11, 10, 10, 9, 11, 18, 18, 1, 17, 16, 1, 10, 10, 8, 7, 5, 5, 1, 5, 1, 1, 10, 10, 5, 10, 10, 26, 14, 1, 26, 1, 5, 1, 1, 16, 16, 1, 7, 24, 1, 1, 1, 1, 1, 20, 20, 13, 1, 4, 13, 20, 20, 15, 2, 12, 1, 2, 1, 1, 12, 9, 12, 6, 6, 5, 17, 5, 3, 3, 5, 18, 8, 5, 1, 24, 5, 1, 12, 12, 6, 5, 8, 8, 8, 7, 14, 8, 10, 10, 29, 5, 29, 15, 15, 17, 3, 7, 17, 11, 11, 8, 8, 8, 8, 6, 1, 1, 6, 1, 1, 2, 1, 15, 2, 12, 12, 12, 15, 15, 1, 1, 20, 20, 14, 14, 25, 18, 25, 1, 1, 15, 24, 15, 12, 6, 12, 8, 7, 8, 22, 22, 7, 7, 21, 3, 21, 21, 21, 17, 17, 13, 13, 12, 1, 12, 17, 17, 13, 1, 13];
Lower_Bound = [0, 23, 17, 30, 62, 75, 76, 82, 96, 104, 120, 138, 141, 151, 149, 150, 161, 176, 186, 204, 215, 227, 228, 5, 7, 8, 30, 50, 58, 73, 77, 110, 120, 121, 129, 129, 128, 132, 148, 166, 174, 200, 203, 216, 211, 237, 243, 56, 16, 17, 25, 38, 49, 69, 75, 83, 101, 104, 115, 110, 121, 131, 142, 162, 162, 163, 204, 196, 210, 220, 240, 43, 29, 22, 32, 35, 46, 75, 80, 90, 91, 92, 100, 101, 117, 123, 134, 158, 148, 157, 161, 179, 242, 239, 247, 50, 42, 55, 60, 68, 51, 55, 72, 86, 92, 106, 114, 108, 111, 118, 121, 132, 147, 149, 157, 169, 246, 255, 252, 60, 69, 58, 73, 69, 70, 64, 80, 90, 96, 95, 96, 97, 128, 129, 137, 163, 166, 156, 175, 192, 200, 201, 226, 113, 74, 85, 75, 80, 78, 97, 97, 105, 105, 103, 101, 115, 116, 131, 136, 145, 147, 152, 177, 178, 209, 215, 221, 114, 97, 91, 93, 96, 113, 112, 119, 117, 124, 105, 116, 117, 129, 130, 141, 154, 165, 154, 212, 192, 207, 210, 220, 99, 101, 100, 114, 119, 114, 114, 119, 123, 132, 130, 125, 134, 135, 135, 150, 160, 169, 185, 198, 210, 242, 218, 230, 182, 173, 180, 168, 130, 131, 130, 141, 130, 132, 131, 141, 172, 162, 137, 162, 162, 177, 178, 179, 182, 201, 213, 221, 174, 172, 171, 159, 153, 149, 153, 148, 138, 137, 149, 148, 154, 162, 173, 169, 182, 184, 196, 203, 207, 202, 202, 205, 186, 198, 213, 214, 208, 195, 169, 170, 162, 167, 156, 170, 162, 235, 213, 207, 185, 206, 223, 220, 208, 216, 205];
Upper_Bound = [2, 24, 18, 32, 63, 87, 77, 89, 101, 110, 121, 141, 149, 154, 158, 167, 165, 178, 188, 219, 229, 229, 238, 10, 27, 13, 32, 60, 59, 82, 83, 111, 125, 126, 139, 131, 133, 133, 164, 169, 184, 201, 204, 219, 216, 240, 249, 57, 19, 21, 26, 47, 56, 81, 88, 87, 104, 106, 116, 111, 122, 132, 144, 166, 166, 166, 206, 197, 218, 226, 245, 49, 31, 26, 38, 40, 48, 79, 86, 102, 92, 97, 101, 103, 134, 125, 139, 159, 161, 160, 175, 182, 249, 243, 248, 52, 43, 56, 61, 75, 63, 57, 75, 91, 100, 108, 128, 116, 114, 142, 126, 136, 155, 153, 163, 171, 250, 258, 259, 73, 81, 59, 83, 80, 71, 76, 81, 102, 98, 96, 112, 101, 139, 131, 142, 164, 169, 158, 177, 193, 212, 208, 231, 121, 79, 86, 77, 82, 88, 111, 98, 106, 110, 104, 103, 117, 118, 135, 147, 157, 156, 154, 179, 181, 220, 227, 223, 116, 105, 98, 94, 103, 131, 114, 129, 119, 127, 115, 118, 120, 138, 133, 144, 165, 167, 155, 217, 205, 220, 211, 234, 107, 102, 108, 117, 120, 118, 116, 120, 125, 133, 135, 127, 138, 139, 138, 152, 163, 171, 188, 201, 211, 250, 219, 234, 186, 179, 181, 171, 131, 135, 135, 146, 144, 133, 148, 150, 183, 164, 138, 163, 164, 188, 189, 185, 185, 205, 216, 222, 180, 175, 173, 160, 155, 161, 155, 149, 142, 139, 161, 165, 157, 165, 179, 173, 186, 200, 200, 214, 210, 213, 210, 206, 187, 201, 215, 220, 209, 199, 172, 177, 167, 178, 157, 172, 165, 245, 228, 210, 188, 209, 224, 222, 211, 218, 206];
Start = 1;
End = 286;
Time = 206;
